experiment/data/hgs-res/Vrp-Set-X-n125/Vrp-Set-X-n125-hgs/0.hgs1.vrp
NAME : 0
COMMENT : CVRP Instance
TYPE : CVRP
DIMENSION : 125
EDGE_WEIGHT_TYPE : EUC_2D
CAPACITY : 188
NODE_COORD_SECTION
1	989.0	944.0
2	5.0	730.0
3	769.0	200.0
4	698.0	515.0
5	72.0	561.0
6	52.0	397.0
7	771.0	177.0
8	81.0	537.0
9	43.0	371.0
10	716.0	202.0
11	106.0	406.0
12	627.0	172.0
13	10.0	338.0
14	776.0	432.0
15	761.0	469.0
16	759.0	287.0
17	593.0	363.0
18	773.0	290.0
19	129.0	398.0
20	709.0	193.0
21	99.0	564.0
22	163.0	418.0
23	48.0	619.0
24	907.0	406.0
25	929.0	527.0
26	69.0	672.0
27	675.0	960.0
28	50.0	763.0
29	736.0	240.0
30	46.0	518.0
31	128.0	793.0
32	699.0	581.0
33	58.0	398.0
34	43.0	393.0
35	783.0	186.0
36	58.0	360.0
37	45.0	712.0
38	38.0	393.0
39	652.0	524.0
40	37.0	364.0
41	37.0	617.0
42	61.0	534.0
43	664.0	358.0
44	555.0	445.0
45	712.0	465.0
46	38.0	469.0
47	2.0	729.0
48	65.0	620.0
49	156.0	497.0
50	857.0	475.0
51	773.0	234.0
52	879.0	98.0
53	685.0	466.0
54	21.0	421.0
55	109.0	536.0
56	60.0	738.0
57	897.0	564.0
58	96.0	383.0
59	76.0	582.0
60	739.0	193.0
61	669.0	548.0
62	284.0	462.0
63	193.0	813.0
64	15.0	696.0
65	102.0	541.0
66	28.0	578.0
67	828.0	292.0
68	73.0	519.0
69	70.0	645.0
70	40.0	433.0
71	745.0	159.0
72	0.0	486.0
73	75.0	511.0
74	228.0	312.0
75	732.0	427.0
76	61.0	407.0
77	495.0	621.0
78	84.0	538.0
79	751.0	246.0
80	22.0	714.0
81	63.0	571.0
82	641.0	350.0
83	873.0	540.0
84	211.0	418.0
85	287.0	618.0
86	155.0	796.0
87	627.0	595.0
88	546.0	199.0
89	795.0	58.0
90	805.0	15.0
91	649.0	486.0
92	145.0	377.0
93	673.0	319.0
94	700.0	678.0
95	86.0	623.0
96	158.0	613.0
97	673.0	619.0
98	738.0	444.0
99	17.0	449.0
100	122.0	182.0
101	108.0	334.0
102	100.0	550.0
103	677.0	505.0
104	23.0	365.0
105	20.0	512.0
106	892.0	41.0
107	452.0	457.0
108	70.0	541.0
109	224.0	931.0
110	67.0	692.0
111	198.0	317.0
112	513.0	731.0
113	159.0	369.0
114	51.0	378.0
115	556.0	137.0
116	800.0	100.0
117	795.0	278.0
118	158.0	773.0
119	43.0	656.0
120	41.0	488.0
121	70.0	375.0
122	132.0	545.0
123	203.0	328.0
124	728.0	467.0
125	759.0	208.0
DEMAND_SECTION
1	0
2	32
3	7
4	83
5	30
6	62
7	26
8	31
9	75
10	5
11	85
12	15
13	94
14	16
15	38
16	32
17	5
18	17
19	92
20	50
21	16
22	79
23	11
24	33
25	60
26	11
27	96
28	46
29	48
30	31
31	25
32	96
33	71
34	61
35	3
36	100
37	6
38	94
39	88
40	53
41	19
42	50
43	19
44	39
45	21
46	95
47	7
48	40
49	51
50	16
51	47
52	13
53	30
54	56
55	5
56	9
57	95
58	70
59	5
60	31
61	80
62	53
63	28
64	38
65	7
66	28
67	18
68	31
69	6
70	71
71	1
72	84
73	47
74	68
75	12
76	88
77	39
78	31
79	6
80	30
81	19
82	38
83	74
84	75
85	2
86	31
87	67
88	47
89	47
90	36
91	20
92	65
93	17
94	81
95	38
96	8
97	95
98	18
99	70
100	95
101	65
102	42
103	88
104	88
105	5
106	43
107	76
108	46
109	17
110	36
111	74
112	97
113	86
114	65
115	38
116	47
117	41
118	17
119	7
120	52
121	98
122	39
123	59
124	10
125	50
DEPOT_SECTION
1
-1
EOF
