experiment/data/hgs-res/Vrp-Set-X-n125/Vrp-Set-X-n125-hgs/0.hgs1.tour
Route #1: 108 27 1 46 63 79 117
Route #2: 95 94 118 109 36 55 30 85 62
Route #3: 25 68 47 22 40 65 77 101
Route #4: 26 93
Route #5: 64 7 41 107 4 80 58
Route #6: 119 71 104 29 20
Route #7: 69 98 72
Route #8: 10 32 67
Route #9: 121 54 91 21
Route #10: 84 53 39 8
Route #11: 45 18
Route #12: 5 33 113
Route #13: 120 75
Route #14: 37 12
Route #15: 103 35
Route #16: 48 57 100
Route #17: 111 86
Route #18: 122 83 61
Route #19: 76 110 73
Route #20: 112 99
Route #21: 96 38
Route #22: 102 90 60
Route #23: 3 31
Route #24: 106 43 16 81 42 123
Route #25: 9 19 11 114 87 92 74
Route #26: 24 49 14 97 44 52
Route #27: 78 124 2 34 6 70 59 28 13
Route #28: 23 66 116 50 15 17
Route #29: 56 82
Route #30: 115 88 89 105 51
Cost 55550.7
